NAME RRP
ROWS
 N  OBJ
 E  R0      
 E  R1      
 E  R2      
 E  R3      
 E  R4      
 E  R5      
 E  R6      
 E  R7      
 E  R8      
 E  R9      
 E  R10     
 E  R11     
 E  R12     
 E  R13     
 L  R14     
 L  R15     
 L  R16     
 L  R17     
 L  R18     
 L  R19     
 L  R20     
 L  R21     
 L  R22     
 L  R23     
 L  R24     
 L  R25     
 L  R26     
 L  R27     
 L  R28     
 L  R29     
 L  R30     
 L  R31     
 L  R32     
 L  R33     
 L  R34     
 L  R35     
 L  R36     
 L  R37     
 L  R38     
 L  R39     
 L  R40     
 L  R41     
 L  R42     
 L  R43     
 L  R44     
 L  R45     
 L  R46     
 L  R47     
 L  R48     
 L  R49     
 L  R50     
 G  R51     
 G  R52     
 G  R53     
 L  R54     
 L  R55     
 L  R56     
 G  R57     
 G  R58     
 G  R59     
 G  R60     
 G  R61     
 G  R62     
 G  R63     
 L  R64     
 L  R65     
 L  R66     
 L  R67     
 L  R68     
 L  R69     
 L  R70     
 L  R71     
 L  R72     
 L  R73     
 L  R74     
 L  R75     
 L  R76     
 G  R77     
 L  qc0     
 L  qc1     
 L  qc2     
 L  qc3     
 L  qc4     
 L  qc5     
 L  qc6     
 L  qc7     
 L  qc8     
 G  qc9     
 G  qc10    
 G  qc11    
 G  qc12    
 G  qc13    
 G  qc14    
 G  qc15    
 G  qc16    
 G  qc17    
COLUMNS
    MARKER    'MARKER'                 'INTORG'
    x_kij[0,0,1]  OBJ       7.2111025509279782e+00
    x_kij[0,0,1]  R0        1
    x_kij[0,0,1]  R2        -1
    x_kij[0,0,1]  R14       1
    x_kij[0,0,1]  R23       80
    x_kij[0,0,2]  OBJ       8.94427190999916
    x_kij[0,0,2]  R0        1
    x_kij[0,0,2]  R3        -1
    x_kij[0,0,2]  R15       1
    x_kij[0,0,2]  R24       80
    x_kij[0,0,3]  OBJ       1.2649110640673518e+01
    x_kij[0,0,3]  R0        1
    x_kij[0,0,3]  R4        -1
    x_kij[0,0,3]  R16       1
    x_kij[0,0,3]  R25       80
    x_kij[0,0,7]  OBJ       3.4525353003264136e+01
    x_kij[0,0,7]  R0        1
    x_kij[0,0,7]  R1        1
    x_kij[0,0,7]  R26       80
    x_kij[0,1,2]  OBJ       1.0770329614269007e+01
    x_kij[0,1,2]  R2        1
    x_kij[0,1,2]  R3        -1
    x_kij[0,1,2]  R8        1
    x_kij[0,1,2]  R11       1
    x_kij[0,1,2]  R15       1
    x_kij[0,1,2]  R27       80
    x_kij[0,1,2]  R75       1
    x_kij[0,1,3]  OBJ       8.2462112512353212e+00
    x_kij[0,1,3]  R2        1
    x_kij[0,1,3]  R4        -1
    x_kij[0,1,3]  R8        1
    x_kij[0,1,3]  R11       1
    x_kij[0,1,3]  R16       1
    x_kij[0,1,3]  R28       80
    x_kij[0,1,3]  R75       1
    x_kij[0,1,4]  OBJ       1.8110770276274835e+01
    x_kij[0,1,4]  R2        1
    x_kij[0,1,4]  R5        -1
    x_kij[0,1,4]  R8        1
    x_kij[0,1,4]  R11       1
    x_kij[0,1,4]  R17       1
    x_kij[0,1,4]  R29       80
    x_kij[0,1,4]  R75       1
    x_kij[0,1,4]  qc0       1.1889229723725165e+01
    x_kij[0,1,4]  qc9       2.1889229723725165e+01
    x_kij[0,1,5]  OBJ       20.8806130178211
    x_kij[0,1,5]  R2        1
    x_kij[0,1,5]  R6        -1
    x_kij[0,1,5]  R8        1
    x_kij[0,1,5]  R11       1
    x_kij[0,1,5]  R18       1
    x_kij[0,1,5]  R30       80
    x_kij[0,1,5]  R75       1
    x_kij[0,1,5]  qc1       1.4119386982178899e+01
    x_kij[0,1,5]  qc10      29.1193869821789
    x_kij[0,1,6]  OBJ       2.9120439557122072e+01
    x_kij[0,1,6]  R2        1
    x_kij[0,1,6]  R7        -1
    x_kij[0,1,6]  R8        1
    x_kij[0,1,6]  R11       1
    x_kij[0,1,6]  R19       1
    x_kij[0,1,6]  R31       80
    x_kij[0,1,6]  R75       1
    x_kij[0,1,6]  qc2       1.5879560442877928e+01
    x_kij[0,1,6]  qc11      5.0879560442877931e+01
    x_kij[0,2,1]  OBJ       1.0770329614269007e+01
    x_kij[0,2,1]  R2        -1
    x_kij[0,2,1]  R3        1
    x_kij[0,2,1]  R9        1
    x_kij[0,2,1]  R12       1
    x_kij[0,2,1]  R14       1
    x_kij[0,2,1]  R32       80
    x_kij[0,2,1]  R75       1
    x_kij[0,2,3]  OBJ       8.94427190999916
    x_kij[0,2,3]  R3        1
    x_kij[0,2,3]  R4        -1
    x_kij[0,2,3]  R9        1
    x_kij[0,2,3]  R12       1
    x_kij[0,2,3]  R16       1
    x_kij[0,2,3]  R33       80
    x_kij[0,2,3]  R75       1
    x_kij[0,2,4]  OBJ       1.8439088914585774e+01
    x_kij[0,2,4]  R3        1
    x_kij[0,2,4]  R5        -1
    x_kij[0,2,4]  R9        1
    x_kij[0,2,4]  R12       1
    x_kij[0,2,4]  R17       1
    x_kij[0,2,4]  R34       80
    x_kij[0,2,4]  R75       1
    x_kij[0,2,4]  qc3       1.1560911085414226e+01
    x_kij[0,2,4]  qc12      2.1560911085414226e+01
    x_kij[0,2,5]  OBJ       1.6492422502470642e+01
    x_kij[0,2,5]  R3        1
    x_kij[0,2,5]  R6        -1
    x_kij[0,2,5]  R9        1
    x_kij[0,2,5]  R12       1
    x_kij[0,2,5]  R18       1
    x_kij[0,2,5]  R35       80
    x_kij[0,2,5]  R75       1
    x_kij[0,2,5]  qc4       1.8507577497529358e+01
    x_kij[0,2,5]  qc13      3.3507577497529354e+01
    x_kij[0,2,6]  OBJ       2.4083189157584592e+01
    x_kij[0,2,6]  R3        1
    x_kij[0,2,6]  R7        -1
    x_kij[0,2,6]  R9        1
    x_kij[0,2,6]  R12       1
    x_kij[0,2,6]  R19       1
    x_kij[0,2,6]  R36       80
    x_kij[0,2,6]  R75       1
    x_kij[0,2,6]  qc5       2.0916810842415408e+01
    x_kij[0,2,6]  qc14      5.5916810842415408e+01
    x_kij[0,3,1]  OBJ       8.2462112512353212e+00
    x_kij[0,3,1]  R2        -1
    x_kij[0,3,1]  R4        1
    x_kij[0,3,1]  R10       1
    x_kij[0,3,1]  R13       1
    x_kij[0,3,1]  R14       1
    x_kij[0,3,1]  R37       80
    x_kij[0,3,1]  R75       1
    x_kij[0,3,2]  OBJ       8.94427190999916
    x_kij[0,3,2]  R3        -1
    x_kij[0,3,2]  R4        1
    x_kij[0,3,2]  R10       1
    x_kij[0,3,2]  R13       1
    x_kij[0,3,2]  R15       1
    x_kij[0,3,2]  R38       80
    x_kij[0,3,2]  R75       1
    x_kij[0,3,4]  OBJ       1.0770329614269007e+01
    x_kij[0,3,4]  R4        1
    x_kij[0,3,4]  R5        -1
    x_kij[0,3,4]  R10       1
    x_kij[0,3,4]  R13       1
    x_kij[0,3,4]  R17       1
    x_kij[0,3,4]  R39       80
    x_kij[0,3,4]  R75       1
    x_kij[0,3,4]  qc6       1.9229670385730991e+01
    x_kij[0,3,4]  qc15      2.9229670385730991e+01
    x_kij[0,3,5]  OBJ       1.2649110640673518e+01
    x_kij[0,3,5]  R4        1
    x_kij[0,3,5]  R6        -1
    x_kij[0,3,5]  R10       1
    x_kij[0,3,5]  R13       1
    x_kij[0,3,5]  R18       1
    x_kij[0,3,5]  R40       80
    x_kij[0,3,5]  R75       1
    x_kij[0,3,5]  qc7       2.2350889359326480e+01
    x_kij[0,3,5]  qc16      3.7350889359326480e+01
    x_kij[0,3,6]  OBJ       20.8806130178211
    x_kij[0,3,6]  R4        1
    x_kij[0,3,6]  R7        -1
    x_kij[0,3,6]  R10       1
    x_kij[0,3,6]  R13       1
    x_kij[0,3,6]  R19       1
    x_kij[0,3,6]  R41       80
    x_kij[0,3,6]  R75       1
    x_kij[0,3,6]  qc8       24.1193869821789
    x_kij[0,3,6]  qc17      5.9119386982178895e+01
    x_kij[0,4,5]  OBJ       8.2462112512353212e+00
    x_kij[0,4,5]  R5        1
    x_kij[0,4,5]  R6        -1
    x_kij[0,4,5]  R8        -1
    x_kij[0,4,5]  R18       1
    x_kij[0,4,5]  R42       80
    x_kij[0,4,6]  OBJ       1.4142135623730951e+01
    x_kij[0,4,6]  R5        1
    x_kij[0,4,6]  R7        -1
    x_kij[0,4,6]  R8        -1
    x_kij[0,4,6]  R19       1
    x_kij[0,4,6]  R43       80
    x_kij[0,4,7]  OBJ       1.2165525060596439e+01
    x_kij[0,4,7]  R1        1
    x_kij[0,4,7]  R5        1
    x_kij[0,4,7]  R8        -1
    x_kij[0,4,7]  R44       80
    x_kij[0,5,4]  OBJ       8.2462112512353212e+00
    x_kij[0,5,4]  R5        -1
    x_kij[0,5,4]  R6        1
    x_kij[0,5,4]  R9        -1
    x_kij[0,5,4]  R17       1
    x_kij[0,5,4]  R45       80
    x_kij[0,5,6]  OBJ       8.2462112512353212e+00
    x_kij[0,5,6]  R6        1
    x_kij[0,5,6]  R7        -1
    x_kij[0,5,6]  R9        -1
    x_kij[0,5,6]  R19       1
    x_kij[0,5,6]  R46       80
    x_kij[0,5,7]  OBJ       1.1661903789690601e+01
    x_kij[0,5,7]  R1        1
    x_kij[0,5,7]  R6        1
    x_kij[0,5,7]  R9        -1
    x_kij[0,5,7]  R47       80
    x_kij[0,6,4]  OBJ       1.4142135623730951e+01
    x_kij[0,6,4]  R5        -1
    x_kij[0,6,4]  R7        1
    x_kij[0,6,4]  R10       -1
    x_kij[0,6,4]  R17       1
    x_kij[0,6,4]  R48       80
    x_kij[0,6,5]  OBJ       8.2462112512353212e+00
    x_kij[0,6,5]  R6        -1
    x_kij[0,6,5]  R7        1
    x_kij[0,6,5]  R10       -1
    x_kij[0,6,5]  R18       1
    x_kij[0,6,5]  R49       80
    x_kij[0,6,7]  OBJ       8.2462112512353212e+00
    x_kij[0,6,7]  R1        1
    x_kij[0,6,7]  R7        1
    x_kij[0,6,7]  R10       -1
    x_kij[0,6,7]  R50       80
    z_i[1]    R11       -1
    z_i[1]    R76       1
    z_i[1]    R77       1
    z_i[2]    R12       -1
    z_i[2]    R76       1
    z_i[2]    R77       1
    z_i[3]    R13       -1
    z_i[3]    R76       1
    z_i[3]    R77       1
    MARKER    'MARKER'                 'INTEND'
    t_ki[0,0]  R23       1
    t_ki[0,0]  R24       1
    t_ki[0,0]  R25       1
    t_ki[0,0]  R26       1
    t_ki[0,0]  R57       1
    t_ki[0,0]  R64       1
    t_ki[0,0]  R74       -1
    t_ki[0,1]  R20       1
    t_ki[0,1]  R23       -1
    t_ki[0,1]  R27       1
    t_ki[0,1]  R28       1
    t_ki[0,1]  R29       1
    t_ki[0,1]  R30       1
    t_ki[0,1]  R31       1
    t_ki[0,1]  R32       -1
    t_ki[0,1]  R37       -1
    t_ki[0,1]  R58       1
    t_ki[0,1]  R65       1
    t_ki[0,1]  R71       -1
    t_ki[0,2]  R21       1
    t_ki[0,2]  R24       -1
    t_ki[0,2]  R27       -1
    t_ki[0,2]  R32       1
    t_ki[0,2]  R33       1
    t_ki[0,2]  R34       1
    t_ki[0,2]  R35       1
    t_ki[0,2]  R36       1
    t_ki[0,2]  R38       -1
    t_ki[0,2]  R59       1
    t_ki[0,2]  R66       1
    t_ki[0,2]  R72       -1
    t_ki[0,3]  R22       1
    t_ki[0,3]  R25       -1
    t_ki[0,3]  R28       -1
    t_ki[0,3]  R33       -1
    t_ki[0,3]  R37       1
    t_ki[0,3]  R38       1
    t_ki[0,3]  R39       1
    t_ki[0,3]  R40       1
    t_ki[0,3]  R41       1
    t_ki[0,3]  R60       1
    t_ki[0,3]  R67       1
    t_ki[0,3]  R73       -1
    t_ki[0,4]  R20       -1
    t_ki[0,4]  R29       -1
    t_ki[0,4]  R34       -1
    t_ki[0,4]  R39       -1
    t_ki[0,4]  R42       1
    t_ki[0,4]  R43       1
    t_ki[0,4]  R44       1
    t_ki[0,4]  R45       -1
    t_ki[0,4]  R48       -1
    t_ki[0,4]  R51       1
    t_ki[0,4]  R54       1
    t_ki[0,4]  R61       1
    t_ki[0,4]  R68       1
    t_ki[0,4]  R71       1
    t_ki[0,5]  R21       -1
    t_ki[0,5]  R30       -1
    t_ki[0,5]  R35       -1
    t_ki[0,5]  R40       -1
    t_ki[0,5]  R42       -1
    t_ki[0,5]  R45       1
    t_ki[0,5]  R46       1
    t_ki[0,5]  R47       1
    t_ki[0,5]  R49       -1
    t_ki[0,5]  R52       1
    t_ki[0,5]  R55       1
    t_ki[0,5]  R62       1
    t_ki[0,5]  R69       1
    t_ki[0,5]  R72       1
    t_ki[0,6]  R22       -1
    t_ki[0,6]  R31       -1
    t_ki[0,6]  R36       -1
    t_ki[0,6]  R41       -1
    t_ki[0,6]  R43       -1
    t_ki[0,6]  R46       -1
    t_ki[0,6]  R48       1
    t_ki[0,6]  R49       1
    t_ki[0,6]  R50       1
    t_ki[0,6]  R53       1
    t_ki[0,6]  R56       1
    t_ki[0,6]  R63       1
    t_ki[0,6]  R70       1
    t_ki[0,6]  R73       1
    t_ki[0,7]  R26       -1
    t_ki[0,7]  R44       -1
    t_ki[0,7]  R47       -1
    t_ki[0,7]  R50       -1
    t_ki[0,7]  R74       1
RHS
    RHS1      R0        1
    RHS1      R1        1
    RHS1      R14       1
    RHS1      R15       1
    RHS1      R16       1
    RHS1      R17       1
    RHS1      R18       1
    RHS1      R19       1
    RHS1      R20       -1.8110770276274835e+01
    RHS1      R21       -1.6492422502470642e+01
    RHS1      R22       -20.8806130178211
    RHS1      R23       7.2788897449072024e+01
    RHS1      R24       7.1055728090000841e+01
    RHS1      R25       6.7350889359326487e+01
    RHS1      R26       4.5474646996735864e+01
    RHS1      R27       69.229670385731
    RHS1      R28       7.1753788748764677e+01
    RHS1      R29       6.1889229723725165e+01
    RHS1      R30       5.9119386982178895e+01
    RHS1      R31       5.0879560442877931e+01
    RHS1      R32       69.229670385731
    RHS1      R33       7.1055728090000841e+01
    RHS1      R34       6.1560911085414226e+01
    RHS1      R35       6.3507577497529354e+01
    RHS1      R36       5.5916810842415408e+01
    RHS1      R37       7.1753788748764677e+01
    RHS1      R38       7.1055728090000841e+01
    RHS1      R39       69.229670385731
    RHS1      R40       6.7350889359326487e+01
    RHS1      R41       5.9119386982178895e+01
    RHS1      R42       7.1753788748764677e+01
    RHS1      R43       6.5857864376269049e+01
    RHS1      R44       6.7834474939403563e+01
    RHS1      R45       7.1753788748764677e+01
    RHS1      R46       7.1753788748764677e+01
    RHS1      R47       68.3380962103094
    RHS1      R48       6.5857864376269049e+01
    RHS1      R49       7.1753788748764677e+01
    RHS1      R50       7.1753788748764677e+01
    RHS1      R51       30
    RHS1      R52       35
    RHS1      R53       45
    RHS1      R54       40
    RHS1      R55       50
    RHS1      R56       80
    RHS1      R57       4
    RHS1      R58       4
    RHS1      R59       4
    RHS1      R60       4
    RHS1      R61       4
    RHS1      R62       4
    RHS1      R63       4
    RHS1      R64       100
    RHS1      R65       100
    RHS1      R66       100
    RHS1      R67       100
    RHS1      R68       100
    RHS1      R69       100
    RHS1      R70       100
    RHS1      R71       80
    RHS1      R72       80
    RHS1      R73       80
    RHS1      R74       100
    RHS1      R75       4
    RHS1      R76       3
    RHS1      R77       3
BOUNDS
 BV BND1      x_kij[0,0,1]
 BV BND1      x_kij[0,0,2]
 BV BND1      x_kij[0,0,3]
 BV BND1      x_kij[0,0,7]
 BV BND1      x_kij[0,1,2]
 BV BND1      x_kij[0,1,3]
 BV BND1      x_kij[0,1,4]
 BV BND1      x_kij[0,1,5]
 BV BND1      x_kij[0,1,6]
 BV BND1      x_kij[0,2,1]
 BV BND1      x_kij[0,2,3]
 BV BND1      x_kij[0,2,4]
 BV BND1      x_kij[0,2,5]
 BV BND1      x_kij[0,2,6]
 BV BND1      x_kij[0,3,1]
 BV BND1      x_kij[0,3,2]
 BV BND1      x_kij[0,3,4]
 BV BND1      x_kij[0,3,5]
 BV BND1      x_kij[0,3,6]
 BV BND1      x_kij[0,4,5]
 BV BND1      x_kij[0,4,6]
 BV BND1      x_kij[0,4,7]
 BV BND1      x_kij[0,5,4]
 BV BND1      x_kij[0,5,6]
 BV BND1      x_kij[0,5,7]
 BV BND1      x_kij[0,6,4]
 BV BND1      x_kij[0,6,5]
 BV BND1      x_kij[0,6,7]
 BV BND1      z_i[1]  
 BV BND1      z_i[2]  
 BV BND1      z_i[3]  
QCMATRIX   qc0     
    x_kij[0,1,4]  t_ki[0,1]  -0.5
    t_ki[0,1]  x_kij[0,1,4]  -0.5
QCMATRIX   qc1     
    x_kij[0,1,5]  t_ki[0,1]  -0.5
    t_ki[0,1]  x_kij[0,1,5]  -0.5
QCMATRIX   qc2     
    x_kij[0,1,6]  t_ki[0,1]  -0.5
    t_ki[0,1]  x_kij[0,1,6]  -0.5
QCMATRIX   qc3     
    x_kij[0,2,4]  t_ki[0,2]  -0.5
    t_ki[0,2]  x_kij[0,2,4]  -0.5
QCMATRIX   qc4     
    x_kij[0,2,5]  t_ki[0,2]  -0.5
    t_ki[0,2]  x_kij[0,2,5]  -0.5
QCMATRIX   qc5     
    x_kij[0,2,6]  t_ki[0,2]  -0.5
    t_ki[0,2]  x_kij[0,2,6]  -0.5
QCMATRIX   qc6     
    x_kij[0,3,4]  t_ki[0,3]  -0.5
    t_ki[0,3]  x_kij[0,3,4]  -0.5
QCMATRIX   qc7     
    x_kij[0,3,5]  t_ki[0,3]  -0.5
    t_ki[0,3]  x_kij[0,3,5]  -0.5
QCMATRIX   qc8     
    x_kij[0,3,6]  t_ki[0,3]  -0.5
    t_ki[0,3]  x_kij[0,3,6]  -0.5
QCMATRIX   qc9     
    x_kij[0,1,4]  t_ki[0,1]  -0.5
    t_ki[0,1]  x_kij[0,1,4]  -0.5
QCMATRIX   qc10    
    x_kij[0,1,5]  t_ki[0,1]  -0.5
    t_ki[0,1]  x_kij[0,1,5]  -0.5
QCMATRIX   qc11    
    x_kij[0,1,6]  t_ki[0,1]  -0.5
    t_ki[0,1]  x_kij[0,1,6]  -0.5
QCMATRIX   qc12    
    x_kij[0,2,4]  t_ki[0,2]  -0.5
    t_ki[0,2]  x_kij[0,2,4]  -0.5
QCMATRIX   qc13    
    x_kij[0,2,5]  t_ki[0,2]  -0.5
    t_ki[0,2]  x_kij[0,2,5]  -0.5
QCMATRIX   qc14    
    x_kij[0,2,6]  t_ki[0,2]  -0.5
    t_ki[0,2]  x_kij[0,2,6]  -0.5
QCMATRIX   qc15    
    x_kij[0,3,4]  t_ki[0,3]  -0.5
    t_ki[0,3]  x_kij[0,3,4]  -0.5
QCMATRIX   qc16    
    x_kij[0,3,5]  t_ki[0,3]  -0.5
    t_ki[0,3]  x_kij[0,3,5]  -0.5
QCMATRIX   qc17    
    x_kij[0,3,6]  t_ki[0,3]  -0.5
    t_ki[0,3]  x_kij[0,3,6]  -0.5
ENDATA
